(set-logic QF_S)
(declare-fun var0 () String)
(declare-fun var1 () String)
(declare-fun var2 () String)
(declare-fun var3 () String)
(declare-fun var4 () String)
(declare-fun var5 () String)
(declare-fun var6 () String)
(declare-fun var7 () String)
(declare-fun var8 () String)
(declare-fun var9 () String)
(declare-fun var10 () String)
(declare-fun var11 () String)
(declare-fun var12 () String)
(declare-fun var13 () String)
(declare-fun var14 () String)
(declare-fun var15 () String)
(declare-fun var16 () String)
(declare-fun var17 () String)
(declare-fun var18 () String)
(declare-fun var19 () String)
(declare-fun var20 () String)
(declare-fun var21 () String)
(declare-fun var22 () String)
(declare-fun var23 () String)
(declare-fun var24 () String)
(declare-fun var25 () String)
(declare-fun var26 () String)
(declare-fun var27 () String)
(declare-fun var28 () String)
(declare-fun var29 () String)
(declare-fun var30 () String)
(declare-fun var31 () String)
(declare-fun var32 () String)
(declare-fun var33 () String)
(declare-fun var34 () String)
(declare-fun var35 () String)
(declare-fun var36 () String)
(declare-fun var37 () String)
(declare-fun var38 () String)
(declare-fun var39 () String)
(declare-fun var40 () String)
(declare-fun var41 () String)
(declare-fun var42 () String)
(declare-fun var43 () String)
(declare-fun var44 () String)
(declare-fun var45 () String)
(declare-fun var46 () String)
(declare-fun var47 () String)
(declare-fun var48 () String)
(declare-fun var49 () String)
(declare-fun var50 () String)
(declare-fun var51 () String)
(declare-fun var52 () String)
(declare-fun var53 () String)
(declare-fun var54 () String)
(declare-fun var55 () String)
(declare-fun var56 () String)
(declare-fun var57 () String)
(declare-fun var58 () String)
(declare-fun var59 () String)
(declare-fun var60 () String)
(assert (= var0 (str.++ var1 var2)))
(assert (= var2 (str.++ var3 var4)))
(assert (= var4 (str.++ var5 var6)))
(assert (= var6 (str.++ var7 var8)))
(assert (= var8 (str.++ var9 var10)))
(assert (= var10 (str.++ var11 var12)))
(assert (= var12 (str.++ var13 var14)))
(assert (= var14 (str.++ var15 var16)))
(assert (= var16 (str.++ var17 var18)))
(assert (= var18 (str.++ var19 var20)))
(assert (= var20 (str.++ var21 var22)))
(assert (= var22 (str.++ var23 var24)))
(assert (= var24 (str.++ var25 var26)))
(assert (= var26 (str.++ var27 var28)))
(assert (= var28 (str.++ var29 var30)))
(assert (= var30 (str.++ var31 var32)))
(assert (= var32 (str.++ var33 var34)))
(assert (= var34 (str.++ var35 var36)))
(assert (= var36 (str.++ var37 var38)))
(assert (= var38 (str.++ var39 var40)))
(assert (= var40 (str.++ var41 var42)))
(assert (= var42 (str.++ var43 var44)))
(assert (= var44 (str.++ var45 var46)))
(assert (= var46 (str.++ var47 var48)))
(assert (= var48 (str.++ var49 var50)))
(assert (= var50 (str.++ var51 var52)))
(assert (= var52 (str.++ var53 var54)))
(assert (= var54 (str.++ var55 var56)))
(assert (= var56 (str.++ var57 var58)))
(assert (= var58 (str.++ var59 var60)))
(assert (= var0 "solution"))
(assert (= """" (str.at var49 320)))
(assert (= "_" (str.at var2 716)))
(assert (= "S" (str.at var32 923)))
(assert (= "/" (str.at var33 27)))
(assert (= "+" (str.at var50 515)))
(assert (= "G" (str.at var38 593)))
(assert (= "Y" (str.at var36 970)))
(assert (= "u" (str.at var48 318)))
(assert (= "'" (str.at var53 711)))
(assert (= "(" (str.at var54 87)))
(assert (= "p" (str.at var49 104)))
(assert (= "p" (str.at var13 753)))
(assert (= ";" (str.at var0 987)))
(assert (= "E" (str.at var35 946)))
(assert (= "'" (str.at var50 295)))
(assert (= "z" (str.at var18 324)))
(assert (= "L" (str.at var6 608)))
(assert (= "a" (str.at var5 480)))
(assert (= "@" (str.at var31 788)))
(assert (= "$" (str.at var38 451)))
(assert (= "&" (str.at var32 167)))
(assert (= "k" (str.at var17 568)))
(assert (= "i" (str.at var48 451)))
(assert (= "4" (str.at var59 162)))
(assert (= "(" (str.at var27 705)))
(assert (= "k" (str.at var6 744)))
(assert (= "=" (str.at var54 452)))
(assert (= "R" (str.at var3 57)))
(assert (= "9" (str.at var20 842)))
(assert (= "_" (str.at var45 229)))
(assert (= "*" (str.at var44 815)))
(assert (= "l" (str.at var59 623)))
(assert (= "V" (str.at var51 992)))
(assert (= "j" (str.at var17 555)))
(assert (= "5" (str.at var26 644)))
(assert (= "i" (str.at var29 425)))
(assert (= "?" (str.at var54 886)))
(assert (= "X" (str.at var44 565)))
(assert (= "Q" (str.at var3 874)))
(assert (= "J" (str.at var31 582)))
(assert (= ";" (str.at var38 950)))
(assert (= "i" (str.at var29 73)))
(assert (= "w" (str.at var42 646)))
(assert (= "?" (str.at var42 911)))
(assert (= "=" (str.at var9 147)))
(assert (= "4" (str.at var5 774)))
(assert (= "j" (str.at var54 235)))
(assert (= "U" (str.at var30 5)))
(assert (= "c" (str.at var44 92)))
(assert (= "^" (str.at var43 821)))
(assert (= "S" (str.at var4 523)))
(assert (= "F" (str.at var43 501)))
(assert (= "." (str.at var16 224)))
(assert (= "_" (str.at var32 732)))
(assert (= "6" (str.at var11 800)))
(assert (= ";" (str.at var21 1)))
(assert (= "b" (str.at var40 806)))
(assert (= "f" (str.at var13 240)))
(assert (= "~" (str.at var32 950)))
(assert (= "e" (str.at var57 947)))
(assert (= "U" (str.at var51 690)))
(assert (= "x" (str.at var11 922)))
(assert (= "R" (str.at var46 971)))
(assert (= "'" (str.at var28 472)))
(assert (= "u" (str.at var36 24)))
(assert (= "z" (str.at var31 563)))
(assert (= "@" (str.at var3 24)))
(assert (= "u" (str.at var37 243)))
(assert (= "`" (str.at var41 315)))
(assert (= "d" (str.at var12 794)))
(assert (= "j" (str.at var46 487)))
(assert (= "W" (str.at var59 418)))
(assert (= "i" (str.at var0 513)))
(assert (= "g" (str.at var52 354)))
(assert (= "&" (str.at var5 835)))
(assert (= "\\" (str.at var13 933)))
(assert (= "v" (str.at var49 390)))
(assert (= "&" (str.at var7 236)))
(assert (= "'" (str.at var33 896)))
(assert (= "R" (str.at var40 61)))
(assert (= "m" (str.at var28 702)))
(assert (= ":" (str.at var10 229)))
(assert (= "Q" (str.at var18 132)))
(assert (= "n" (str.at var26 371)))
(assert (= "o" (str.at var43 359)))
(assert (= "." (str.at var51 849)))
(assert (= "#" (str.at var2 480)))
(assert (= "j" (str.at var9 289)))
(assert (= "'" (str.at var44 524)))
(assert (= "b" (str.at var1 271)))
(assert (= "I" (str.at var15 244)))
(assert (= ")" (str.at var58 539)))
(assert (= "H" (str.at var24 870)))
(assert (= "4" (str.at var49 394)))
(assert (= "K" (str.at var22 672)))
(assert (= "W" (str.at var1 659)))
(assert (= "H" (str.at var8 797)))
(assert (= "b" (str.at var30 113)))
(assert (= "d" (str.at var21 89)))
(assert (= "S" (str.at var45 753)))
(assert (= "M" (str.at var49 820)))
(assert (= "i" (str.at var31 948)))
(assert (= "z" (str.at var46 937)))
(assert (= "K" (str.at var49 452)))
(assert (= "~" (str.at var7 854)))
(assert (= "t" (str.at var42 40)))
(assert (= "W" (str.at var7 40)))
(assert (= "2" (str.at var35 785)))
(assert (= "v" (str.at var39 132)))
(assert (= "-" (str.at var18 947)))
(assert (= "!" (str.at var1 820)))
(assert (= "F" (str.at var30 547)))
(assert (= "," (str.at var49 581)))
(assert (= "4" (str.at var2 491)))
(assert (= "r" (str.at var36 341)))
(assert (= ":" (str.at var48 616)))
(assert (= "\\" (str.at var44 340)))
(assert (= "w" (str.at var26 458)))
(assert (= "d" (str.at var27 505)))
(assert (= "B" (str.at var49 547)))
(assert (= "B" (str.at var11 147)))
(assert (= "Z" (str.at var33 167)))
(assert (= "G" (str.at var57 417)))
(assert (= "q" (str.at var60 361)))
(assert (= "J" (str.at var43 902)))
(assert (= "e" (str.at var5 970)))
(assert (= ":" (str.at var53 492)))
(assert (= "c" (str.at var24 614)))
(assert (= "[" (str.at var51 64)))
(assert (= "c" (str.at var51 819)))
(assert (= "G" (str.at var29 739)))
(assert (= "d" (str.at var7 713)))
(assert (= "(" (str.at var47 650)))
(assert (= "~" (str.at var59 550)))
(assert (= "_" (str.at var49 457)))
(assert (= "V" (str.at var46 338)))
(assert (= "e" (str.at var3 918)))
(assert (= "-" (str.at var56 913)))
(assert (= "3" (str.at var17 985)))
(assert (= "O" (str.at var46 731)))
(assert (= "U" (str.at var6 573)))
(assert (= "B" (str.at var52 766)))
(assert (= "n" (str.at var4 533)))
(assert (= "e" (str.at var45 568)))
(assert (= "F" (str.at var6 73)))
(assert (= "w" (str.at var54 838)))
(assert (= "Y" (str.at var27 734)))
(assert (= "[" (str.at var20 948)))
(assert (= "T" (str.at var17 880)))
(assert (= "]" (str.at var20 288)))
(assert (= "f" (str.at var3 649)))
(assert (= ")" (str.at var9 408)))
(assert (= "c" (str.at var40 770)))
(assert (= "O" (str.at var29 440)))
(assert (= "2" (str.at var54 58)))
(assert (= "9" (str.at var11 994)))
(assert (= "[" (str.at var30 516)))
(assert (= "m" (str.at var38 525)))
(assert (= "g" (str.at var35 761)))
(assert (= "b" (str.at var39 639)))
(assert (= "b" (str.at var59 202)))
(assert (= "y" (str.at var46 710)))
(assert (= "*" (str.at var59 304)))
(assert (= "?" (str.at var50 296)))
(assert (= "%" (str.at var27 105)))
(assert (= "~" (str.at var48 556)))
(assert (= "g" (str.at var12 123)))
(assert (= "I" (str.at var49 402)))
(assert (= "D" (str.at var15 921)))
(assert (= "j" (str.at var52 184)))
(assert (= "$" (str.at var2 953)))
(assert (= "Z" (str.at var6 143)))
(assert (= "Q" (str.at var14 995)))
(assert (= "m" (str.at var21 387)))
(assert (= "3" (str.at var30 604)))
(assert (= "`" (str.at var4 972)))
(assert (= "u" (str.at var54 556)))
(assert (= "J" (str.at var13 592)))
(assert (= "-" (str.at var60 855)))
(assert (= "H" (str.at var44 233)))
(assert (= "v" (str.at var28 571)))
(assert (= "$" (str.at var60 259)))
(assert (= "x" (str.at var16 805)))
(assert (= "." (str.at var55 406)))
(assert (= "i" (str.at var26 256)))
(assert (= "B" (str.at var45 59)))
(assert (= "1" (str.at var27 833)))
(assert (= "'" (str.at var19 138)))
(assert (= "?" (str.at var35 943)))
(assert (= "P" (str.at var26 938)))
(assert (= "l" (str.at var39 551)))
(assert (= ")" (str.at var51 841)))
(assert (= "2" (str.at var20 607)))
(assert (= "J" (str.at var36 803)))
(assert (= "v" (str.at var25 939)))
(assert (= "T" (str.at var24 369)))
(assert (= "U" (str.at var7 716)))
(assert (= "0" (str.at var8 68)))
(assert (= "+" (str.at var60 556)))
(assert (= "#" (str.at var4 690)))
(assert (= "W" (str.at var47 336)))
(assert (= "}" (str.at var53 185)))
(assert (= "J" (str.at var5 760)))
(assert (= "i" (str.at var4 843)))
(assert (= "t" (str.at var5 698)))
(assert (= "&" (str.at var55 775)))
(assert (= "?" (str.at var31 20)))
(assert (= "6" (str.at var49 423)))
(assert (= "m" (str.at var26 506)))
(assert (= "$" (str.at var36 951)))
(assert (= "H" (str.at var59 206)))
(assert (= "b" (str.at var38 341)))
(assert (= "5" (str.at var2 37)))
(assert (= "t" (str.at var60 250)))
(assert (= "T" (str.at var42 33)))
(assert (= "5" (str.at var12 210)))
(assert (= "b" (str.at var41 82)))
(assert (= "%" (str.at var37 975)))
(assert (= "/" (str.at var57 525)))
(assert (= "m" (str.at var7 969)))
(assert (= "W" (str.at var22 887)))
(assert (= "o" (str.at var41 954)))
(assert (= "F" (str.at var45 631)))
(assert (= "d" (str.at var26 43)))
(assert (= "z" (str.at var10 562)))
(assert (= "U" (str.at var36 197)))
(assert (= "." (str.at var46 614)))
(assert (= "m" (str.at var41 144)))
(assert (= "g" (str.at var51 504)))
(assert (= "X" (str.at var17 891)))
(assert (= "'" (str.at var18 376)))
(assert (= """" (str.at var41 227)))
(assert (= "!" (str.at var30 517)))
(assert (= "P" (str.at var58 544)))
(assert (= "z" (str.at var36 897)))
(assert (= "v" (str.at var56 467)))
(assert (= "Q" (str.at var54 331)))
(assert (= ">" (str.at var30 618)))
(assert (= "?" (str.at var38 274)))
(assert (= "6" (str.at var11 184)))
(assert (= "]" (str.at var56 561)))
(assert (= "8" (str.at var59 489)))
(assert (= "5" (str.at var45 114)))
(assert (= ">" (str.at var45 955)))
(assert (= "-" (str.at var5 55)))
(assert (= "'" (str.at var34 32)))
(assert (= "C" (str.at var28 389)))
(assert (= "~" (str.at var41 717)))
(assert (= "." (str.at var29 548)))
(assert (= "l" (str.at var0 770)))
(assert (= "8" (str.at var41 5)))
(assert (= "6" (str.at var9 496)))
(assert (= "Q" (str.at var20 978)))
(assert (= "[" (str.at var50 267)))
(assert (= "P" (str.at var41 278)))
(assert (= "2" (str.at var24 14)))
(assert (= "f" (str.at var60 827)))
(assert (= "+" (str.at var0 811)))
(assert (= "_" (str.at var13 37)))
(assert (= "G" (str.at var44 376)))
(assert (= "(" (str.at var9 329)))
(assert (= "b" (str.at var50 419)))
(assert (= "g" (str.at var58 191)))
(assert (= "i" (str.at var40 535)))
(assert (= """" (str.at var48 309)))
(assert (= "n" (str.at var14 956)))
(assert (= "h" (str.at var58 327)))
(assert (= "K" (str.at var8 316)))
(assert (= "@" (str.at var18 466)))
(assert (= "V" (str.at var8 979)))
(assert (= "\\" (str.at var18 615)))
(assert (= "C" (str.at var39 790)))
(assert (= "b" (str.at var49 343)))
(assert (= "f" (str.at var15 722)))
(assert (= "4" (str.at var51 120)))
(assert (= "]" (str.at var5 931)))
(assert (= "+" (str.at var5 979)))
(assert (= "O" (str.at var27 102)))
(assert (= "*" (str.at var24 667)))
(assert (= "'" (str.at var42 665)))
(assert (= "G" (str.at var33 721)))
(assert (= "N" (str.at var24 620)))
(assert (= "M" (str.at var34 892)))
(assert (= "z" (str.at var3 876)))
(assert (= "9" (str.at var51 773)))
(assert (= "^" (str.at var8 164)))
(assert (= "+" (str.at var50 895)))
(assert (= "j" (str.at var49 679)))
(assert (= "X" (str.at var34 273)))
(assert (= "(" (str.at var36 794)))
(assert (= "f" (str.at var42 860)))
(assert (= "V" (str.at var21 778)))
(assert (= "7" (str.at var3 198)))
(assert (= "L" (str.at var49 108)))
(assert (= "'" (str.at var28 905)))
(assert (= "@" (str.at var13 899)))
(assert (= "\\" (str.at var54 577)))
(assert (= "r" (str.at var50 278)))
(assert (= "[" (str.at var10 924)))
(assert (= ">" (str.at var32 190)))
(assert (= "A" (str.at var41 953)))
(assert (= "-" (str.at var54 285)))
(assert (= "6" (str.at var39 265)))
(assert (= "`" (str.at var4 815)))
(assert (= "5" (str.at var57 701)))
(assert (= "!" (str.at var55 772)))
(assert (= "D" (str.at var27 627)))
(assert (= "I" (str.at var56 107)))
(assert (= "}" (str.at var2 163)))
(assert (= "2" (str.at var42 821)))
(assert (= "y" (str.at var1 395)))
(assert (= "I" (str.at var3 398)))
(assert (= "a" (str.at var41 132)))
(assert (= "W" (str.at var55 537)))
(assert (= "L" (str.at var46 374)))
(assert (= "#" (str.at var38 123)))
(assert (= "T" (str.at var22 539)))
(assert (= ";" (str.at var19 899)))
(assert (= "/" (str.at var7 733)))
(assert (= "p" (str.at var34 519)))
(assert (= "v" (str.at var19 45)))
(assert (= "V" (str.at var48 526)))
(assert (= "K" (str.at var18 217)))
(assert (= "E" (str.at var9 344)))
(assert (= ">" (str.at var10 511)))
(assert (= "#" (str.at var29 296)))
(assert (= "U" (str.at var42 342)))
(assert (= "." (str.at var54 11)))
(assert (= "{" (str.at var28 612)))
(assert (= "1" (str.at var46 179)))
(assert (= "`" (str.at var31 942)))
(assert (= "|" (str.at var27 966)))
(assert (= "T" (str.at var32 642)))
(assert (= "," (str.at var24 361)))
(assert (= "z" (str.at var26 286)))
(assert (= ")" (str.at var20 818)))
(assert (= "{" (str.at var43 541)))
(assert (= "o" (str.at var7 264)))
(assert (= "N" (str.at var33 524)))
(assert (= "i" (str.at var12 155)))
(assert (= "]" (str.at var42 451)))
(assert (= "4" (str.at var6 364)))
(assert (= "/" (str.at var37 138)))
(assert (= "s" (str.at var43 646)))
(assert (= "_" (str.at var41 300)))
(assert (= "n" (str.at var14 879)))
(assert (= "k" (str.at var56 487)))
(assert (= "O" (str.at var42 259)))
(assert (= "Y" (str.at var32 558)))
(assert (= "3" (str.at var50 76)))
(assert (= "]" (str.at var53 418)))
(assert (= "7" (str.at var57 292)))
(assert (= "3" (str.at var33 806)))
(assert (= "g" (str.at var36 689)))
(assert (= "[" (str.at var43 668)))
(assert (= "J" (str.at var48 111)))
(assert (= "a" (str.at var41 42)))
(assert (= "b" (str.at var37 511)))
(assert (= "c" (str.at var24 591)))
(assert (= "b" (str.at var25 445)))
(assert (= ";" (str.at var11 602)))
(assert (= "R" (str.at var56 589)))
(assert (= "g" (str.at var20 622)))
(assert (= "e" (str.at var36 881)))
(assert (= "@" (str.at var9 942)))
(assert (= "5" (str.at var51 343)))
(assert (= "T" (str.at var56 81)))
(assert (= "N" (str.at var47 323)))
(assert (= "Q" (str.at var12 138)))
(assert (= "n" (str.at var7 832)))
(assert (= "6" (str.at var42 498)))
(assert (= "." (str.at var47 403)))
(assert (= "0" (str.at var22 877)))
(assert (= "5" (str.at var41 911)))
(assert (= "8" (str.at var29 819)))
(assert (= "+" (str.at var53 417)))
(assert (= "t" (str.at var25 364)))
(assert (= "H" (str.at var8 635)))
(assert (= "5" (str.at var50 664)))
(assert (= "[" (str.at var52 659)))
(assert (= "9" (str.at var14 960)))
(assert (= "Q" (str.at var20 305)))
(assert (= "X" (str.at var48 845)))
(assert (= "m" (str.at var28 538)))
(assert (= "+" (str.at var32 175)))
(assert (= "*" (str.at var31 488)))
(assert (= """" (str.at var26 354)))
(assert (= "}" (str.at var20 612)))
(assert (= "p" (str.at var28 725)))
(assert (= "l" (str.at var53 139)))
(assert (= "f" (str.at var39 409)))
(assert (= "K" (str.at var7 904)))
(assert (= "'" (str.at var32 137)))
(assert (= "+" (str.at var31 279)))
(assert (= "(" (str.at var22 635)))
(assert (= "'" (str.at var48 544)))
(assert (= "X" (str.at var29 609)))
(assert (= "w" (str.at var2 561)))
(assert (= "n" (str.at var2 982)))
(assert (= "," (str.at var49 188)))
(assert (= "X" (str.at var11 953)))
(assert (= ")" (str.at var34 527)))
(assert (= "R" (str.at var54 73)))
(assert (= "b" (str.at var41 862)))
(assert (= "b" (str.at var11 593)))
(assert (= "U" (str.at var10 507)))
(assert (= "-" (str.at var16 660)))
(assert (= "=" (str.at var47 613)))
(assert (= "/" (str.at var25 376)))
(assert (= "h" (str.at var53 237)))
(assert (= "c" (str.at var29 834)))
(assert (= "j" (str.at var20 586)))
(assert (= "%" (str.at var2 131)))
(assert (= "w" (str.at var15 88)))
(assert (= "/" (str.at var43 70)))
(assert (= "+" (str.at var16 143)))
(assert (= "-" (str.at var57 507)))
(assert (= "3" (str.at var20 986)))
(assert (= "p" (str.at var25 503)))
(assert (= ":" (str.at var53 789)))
(assert (= "|" (str.at var38 679)))
(assert (= "b" (str.at var46 607)))
(assert (= "d" (str.at var4 408)))
(assert (= "f" (str.at var50 853)))
(assert (= "Q" (str.at var52 266)))
(assert (= "H" (str.at var36 610)))
(assert (= "%" (str.at var10 564)))
(assert (= "3" (str.at var37 846)))
(assert (= "V" (str.at var18 534)))
(assert (= "h" (str.at var51 148)))
(assert (= "]" (str.at var42 329)))
(assert (= "N" (str.at var57 192)))
(assert (= "`" (str.at var14 31)))
(assert (= "{" (str.at var57 406)))
(assert (= "b" (str.at var18 289)))
(assert (= "&" (str.at var20 799)))
(assert (= "1" (str.at var30 73)))
(assert (= "{" (str.at var7 208)))
(assert (= "6" (str.at var19 911)))
(assert (= "f" (str.at var12 229)))
(assert (= "." (str.at var26 793)))
(assert (= "M" (str.at var13 867)))
(assert (= "Y" (str.at var12 219)))
(assert (= "$" (str.at var19 692)))
(assert (= "_" (str.at var53 43)))
(assert (= "K" (str.at var20 344)))
(assert (= "y" (str.at var44 936)))
(assert (= "K" (str.at var8 780)))
(assert (= "." (str.at var45 756)))
(assert (= "L" (str.at var56 517)))
(assert (= "D" (str.at var10 149)))
(assert (= "n" (str.at var28 102)))
(assert (= "y" (str.at var33 926)))
(assert (= "s" (str.at var8 323)))
(assert (= "i" (str.at var25 897)))
(assert (= "a" (str.at var44 777)))
(assert (= "u" (str.at var52 503)))
(assert (= "z" (str.at var21 339)))
(assert (= "J" (str.at var14 465)))
(assert (= "~" (str.at var28 923)))
(assert (= "H" (str.at var0 970)))
(assert (= "Q" (str.at var22 186)))
(assert (= "*" (str.at var20 415)))
(assert (= "'" (str.at var8 825)))
(assert (= """" (str.at var27 869)))
(assert (= "<" (str.at var32 860)))
(assert (= "]" (str.at var59 112)))
(assert (= "p" (str.at var2 273)))
(assert (= "|" (str.at var57 211)))
(assert (= "g" (str.at var40 446)))
(assert (= "x" (str.at var54 174)))
(assert (= "X" (str.at var4 672)))
(assert (= """" (str.at var19 276)))
(assert (= "Y" (str.at var55 391)))
(assert (= "?" (str.at var8 816)))
(assert (= "H" (str.at var44 161)))
(assert (= "t" (str.at var8 311)))
(assert (= "j" (str.at var60 236)))
(assert (= "n" (str.at var51 743)))
(assert (= "m" (str.at var56 939)))
(assert (= "+" (str.at var26 410)))
(assert (= "(" (str.at var23 470)))
(assert (= "E" (str.at var35 394)))
(assert (= "A" (str.at var22 151)))
(assert (= "B" (str.at var5 834)))
(assert (= "4" (str.at var39 568)))
(assert (= "+" (str.at var56 77)))
(assert (= "*" (str.at var48 637)))
(assert (= "[" (str.at var6 848)))
(assert (= "w" (str.at var57 860)))
(assert (= "A" (str.at var10 559)))
(assert (= "W" (str.at var31 521)))
(assert (= "C" (str.at var54 9)))
(assert (= "4" (str.at var48 316)))
(assert (= "z" (str.at var35 622)))
(assert (= "Y" (str.at var44 790)))
(assert (= "O" (str.at var30 607)))
(assert (= "S" (str.at var41 228)))
(assert (= "a" (str.at var26 994)))
(assert (= "G" (str.at var3 396)))
(assert (= "h" (str.at var51 560)))
(assert (= "%" (str.at var19 238)))
(assert (= "w" (str.at var39 506)))
(assert (= """" (str.at var59 682)))
(assert (= "7" (str.at var17 358)))
(assert (= "X" (str.at var24 399)))
(assert (= ":" (str.at var59 443)))
(assert (= "w" (str.at var27 999)))
(assert (= "d" (str.at var34 255)))
(assert (= "Z" (str.at var48 382)))
(assert (= "Y" (str.at var34 65)))
(assert (= "D" (str.at var51 704)))
(assert (= "?" (str.at var53 970)))
(assert (= "2" (str.at var31 493)))
(assert (= "G" (str.at var20 538)))
(assert (= "4" (str.at var47 526)))
(assert (= ":" (str.at var42 468)))
(assert (= ";" (str.at var22 86)))
(assert (= "B" (str.at var25 476)))
(assert (= "u" (str.at var57 131)))
(assert (= "^" (str.at var36 285)))
(check-sat)